(set-logic ALL)
(declare-fun var0 () String)
(assert (str.in_re var0 (re.++ (re.union (re.+ (str.to_re "00")) (re.+ (str.to_re "111"))) (re.++ (re.+ (re.union (str.to_re "2") (str.to_re "33"))) (re.++ (re.union (re.union (str.to_re "44") (str.to_re "555")) (re.union (str.to_re "66") (str.to_re "77"))) (re.++ (re.+ (re.+ (str.to_re "888"))) (re.++ (re.union (re.* (str.to_re "999")) (re.* (str.to_re "a"))) (re.++ (re.* (re.union (str.to_re "b") (str.to_re "ccc"))) (re.++ (re.+ (re.* (str.to_re "dd"))) (re.++ (re.+ (re.* (str.to_re "ee"))) (re.++ (re.union (re.union (str.to_re "ff") (str.to_re "ggg")) (re.union (str.to_re "hh") (str.to_re "ii"))) (re.++ (re.* (re.* (str.to_re "jj"))) (re.++ (re.* (re.+ (str.to_re "k"))) (re.++ (re.union (re.* (str.to_re "l")) (re.* (str.to_re "m"))) (re.++ (re.union (re.+ (str.to_re "n")) (re.+ (str.to_re "o"))) (re.++ (re.union (re.* (str.to_re "pp")) (re.* (str.to_re "q"))) (re.++ (re.* (re.* (str.to_re "rr"))) (re.++ (re.* (re.union (str.to_re "ss") (str.to_re "t"))) (re.++ (re.+ (re.union (str.to_re "u") (str.to_re "v"))) (re.++ (re.union (re.+ (str.to_re "www")) (re.+ (str.to_re "xx"))) (re.++ (re.union (re.+ (str.to_re "y")) (re.+ (str.to_re "z"))) (re.++ (re.union (re.* (str.to_re "A")) (re.* (str.to_re "BB"))) (re.++ (re.union (re.union (str.to_re "C") (str.to_re "DDD")) (re.union (str.to_re "E") (str.to_re "FF"))) (re.++ (re.+ (re.+ (str.to_re "GG"))) (re.++ (re.union (re.+ (str.to_re "H")) (re.+ (str.to_re "III"))) (re.++ (re.union (re.* (str.to_re "J")) (re.* (str.to_re "KK"))) (re.++ (re.+ (re.* (str.to_re "LL"))) (re.++ (re.+ (re.union (str.to_re "M") (str.to_re "NN"))) (re.++ (re.union (re.* (str.to_re "O")) (re.* (str.to_re "PPP"))) (re.++ (re.+ (re.union (str.to_re "Q") (str.to_re "RR"))) (re.++ (re.* (re.+ (str.to_re "S"))) (re.++ (re.union (re.* (str.to_re "TT")) (re.* (str.to_re "UUU"))) (re.++ (re.+ (re.union (str.to_re "VVV") (str.to_re "W"))) (re.++ (re.union (re.union (str.to_re "XXX") (str.to_re "YY")) (re.union (str.to_re "ZZ") (str.to_re "!!"))) (re.++ (re.union (re.* (str.to_re """")) (re.* (str.to_re "#"))) (re.++ (re.union (re.* (str.to_re "$$")) (re.* (str.to_re "%"))) (re.++ (re.* (re.union (str.to_re "&&") (str.to_re "'''"))) (re.++ (re.+ (re.* (str.to_re "(("))) (re.++ (re.+ (re.* (str.to_re ")"))) (re.++ (re.* (re.* (str.to_re "***"))) (re.++ (re.union (re.* (str.to_re "+++")) (re.* (str.to_re ",,,"))) (re.++ (re.+ (re.* (str.to_re "---"))) (re.++ (re.+ (re.+ (str.to_re "..."))) (re.++ (re.+ (re.* (str.to_re "//"))) (re.++ (re.+ (re.* (str.to_re "::"))) (re.++ (re.union (re.union (str.to_re ";") (str.to_re "<<")) (re.union (str.to_re "==") (str.to_re ">"))) (re.++ (re.+ (re.union (str.to_re "???") (str.to_re "@"))) (re.++ (re.union (re.* (str.to_re "[[[")) (re.* (str.to_re "\\\\\\"))) (re.++ (re.* (re.+ (str.to_re "]]]"))) (re.++ (re.* (re.union (str.to_re "^") (str.to_re "___"))) (re.++ (re.union (re.* (str.to_re "`")) (re.* (str.to_re "{{{"))) (re.++ (re.union (re.union (str.to_re "|") (str.to_re "}")) (re.union (str.to_re "~~~") (str.to_re "0"))) (re.++ (re.union (re.* (str.to_re "1")) (re.* (str.to_re "2"))) (re.++ (re.* (re.union (str.to_re "3") (str.to_re "444"))) (re.++ (re.* (re.union (str.to_re "55") (str.to_re "66"))) (re.++ (re.* (re.+ (str.to_re "7"))) (re.++ (re.* (re.+ (str.to_re "88"))) (re.++ (re.union (re.+ (str.to_re "9")) (re.+ (str.to_re "aa"))) (re.++ (re.union (re.* (str.to_re "bb")) (re.* (str.to_re "c"))) (re.++ (re.union (re.union (str.to_re "d") (str.to_re "eee")) (re.union (str.to_re "f") (str.to_re "gg"))) (re.++ (re.* (re.+ (str.to_re "h"))) (re.++ (re.union (re.* (str.to_re "ii")) (re.* (str.to_re "jjj"))) (re.++ (re.union (re.+ (str.to_re "kkk")) (re.+ (str.to_re "l"))) (re.++ (re.* (re.union (str.to_re "m") (str.to_re "n"))) (re.++ (re.union (re.union (str.to_re "o") (str.to_re "p")) (re.union (str.to_re "qqq") (str.to_re "rr"))) (re.++ (re.+ (re.+ (str.to_re "s"))) (re.++ (re.union (re.+ (str.to_re "tt")) (re.+ (str.to_re "uuu"))) (re.++ (re.* (re.union (str.to_re "vv") (str.to_re "ww"))) (re.++ (re.union (re.+ (str.to_re "xx")) (re.+ (str.to_re "y"))) (re.++ (re.* (re.+ (str.to_re "zzz"))) (re.++ (re.union (re.* (str.to_re "AAA")) (re.* (str.to_re "BB"))) (re.++ (re.union (re.* (str.to_re "CC")) (re.* (str.to_re "DD"))) (re.++ (re.+ (re.+ (str.to_re "E"))) (re.++ (re.+ (re.union (str.to_re "F") (str.to_re "GG"))) (re.++ (re.union (re.* (str.to_re "H")) (re.* (str.to_re "II"))) (re.++ (re.* (re.* (str.to_re "J"))) (re.++ (re.* (re.* (str.to_re "KKK"))) (re.++ (re.* (re.* (str.to_re "L"))) (re.++ (re.union (re.union (str.to_re "MMM") (str.to_re "NN")) (re.union (str.to_re "OO") (str.to_re "PP"))) (re.++ (re.union (re.union (str.to_re "QQQ") (str.to_re "R")) (re.union (str.to_re "SSS") (str.to_re "TTT"))) (re.++ (re.union (re.* (str.to_re "U")) (re.* (str.to_re "V"))) (re.++ (re.* (re.* (str.to_re "WW"))) (re.++ (re.* (re.+ (str.to_re "XXX"))) (re.++ (re.* (re.+ (str.to_re "YYY"))) (re.++ (re.union (re.* (str.to_re "ZZZ")) (re.* (str.to_re "!"))) (re.++ (re.+ (re.* (str.to_re """"))) (re.++ (re.+ (re.+ (str.to_re "##"))) (re.++ (re.union (re.* (str.to_re "$$")) (re.* (str.to_re "%"))) (re.++ (re.union (re.* (str.to_re "&")) (re.* (str.to_re "'''"))) (re.++ (re.* (re.* (str.to_re "(("))) (re.++ (re.union (re.union (str.to_re ")))") (str.to_re "*")) (re.union (str.to_re "+") (str.to_re ",,"))) (re.++ (re.* (re.* (str.to_re "--"))) (re.++ (re.+ (re.union (str.to_re "..") (str.to_re "/"))) (re.++ (re.* (re.union (str.to_re ":::") (str.to_re ";"))) (re.++ (re.+ (re.* (str.to_re "<"))) (re.++ (re.+ (re.union (str.to_re "==") (str.to_re ">>"))) (re.++ (re.+ (re.union (str.to_re "???") (str.to_re "@"))) (re.++ (re.* (re.* (str.to_re "[[["))) (re.++ (re.+ (re.* (str.to_re "\\"))) (re.++ (re.union (re.union (str.to_re "]]]") (str.to_re "^")) (re.union (str.to_re "___") (str.to_re "``"))) (re.union (re.* (str.to_re "{")) (re.* (str.to_re "||")))))))))))))))))))))))))))))))))))))))))))))))))))))))))))))))))))))))))))))))))))))))))))))))))))))))
(check-sat)